33D32945 STP File, STP Format Version 1.0

SECTION Comment
Name    "i080-304"
Creator "Cees Duin"
Remark  "Incidence graph"
END

SECTION Graph
Nodes 80
Edges 120
E 1 11 303
E 1 12 297
E 1 21 203
E 1 43 196
E 1 55 198
E 1 56 204
E 1 59 201
E 2 7 309
E 2 38 202
E 2 55 201
E 3 16 304
E 4 59 199
E 4 68 202
E 5 18 306
E 5 54 194
E 5 59 202
E 5 68 202
E 5 72 192
E 6 10 304
E 6 51 198
E 6 69 196
E 6 73 199
E 6 77 207
E 7 14 297
E 7 21 208
E 7 33 205
E 7 57 206
E 8 16 300
E 8 20 295
E 9 30 203
E 9 50 203
E 9 52 204
E 10 17 299
E 10 51 200
E 10 73 197
E 11 34 194
E 11 53 206
E 12 16 287
E 12 51 198
E 12 69 204
E 13 40 200
E 13 64 197
E 13 71 212
E 14 19 301
E 14 56 205
E 15 17 296
E 15 27 198
E 16 25 189
E 16 72 194
E 17 30 191
E 17 48 202
E 18 47 198
E 19 37 203
E 19 63 195
E 20 52 199
E 20 60 201
E 21 35 97
E 21 36 95
E 22 40 97
E 22 47 102
E 22 49 95
E 22 59 103
E 23 40 98
E 24 36 93
E 24 61 100
E 24 80 101
E 25 58 101
E 25 74 105
E 26 31 104
E 27 31 106
E 28 29 97
E 28 51 100
E 29 35 95
E 29 66 96
E 29 76 96
E 30 39 94
E 30 42 104
E 31 40 112
E 31 41 108
E 32 50 102
E 33 41 97
E 33 46 109
E 33 76 96
E 34 70 94
E 35 43 98
E 35 44 106
E 36 53 101
E 36 69 107
E 36 72 100
E 38 56 98
E 38 72 103
E 39 53 108
E 40 50 98
E 40 51 103
E 40 80 104
E 41 51 99
E 42 51 102
E 43 63 93
E 43 71 101
E 44 56 103
E 45 57 99
E 45 72 102
E 46 49 98
E 46 54 97
E 47 56 97
E 47 75 91
E 48 57 104
E 48 67 97
E 49 61 104
E 52 60 102
E 55 61 99
E 57 62 100
E 57 75 95
E 61 62 100
E 62 65 96
E 62 77 102
E 63 80 95
E 67 78 97
E 72 78 106
E 76 79 92
END

SECTION Terminals
Terminals 20
T 1
T 2
T 3
T 4
T 5
T 6
T 7
T 8
T 9
T 10
T 11
T 12
T 13
T 14
T 15
T 16
T 17
T 18
T 19
T 20
END

EOF
